34
100
80	2
79	2
77	1
74	2
72	1
71	1
70	2
69	1
68	1
67	1
64	1
63	2
59	1
55	1
53	1
51	1
49	1
48	2
45	1
44	1
43	1
40	3
39	2
38	2
37	2
35	1
33	1
28	1
27	2
25	2
24	2
23	2
22	2
20	1
